45
1 0 4
2 0 5
2 1 9
3 0 9
3 1 7
3 2 9
4 0 2
4 1 5
4 2 6
4 3 1
5 0 7
5 1 5
5 2 2
5 3 3
5 4 6
6 0 1
6 1 5
6 2 2
6 3 1
6 4 3
6 5 5
7 0 3
7 1 10
7 2 3
7 3 7
7 4 1
7 5 1
7 6 8
8 0 5
8 1 8
8 2 10
8 3 5
8 4 5
8 5 8
8 6 3
8 7 4
9 0 3
9 1 2
9 2 5
9 3 7
9 4 5
9 5 3
9 6 2
9 7 9
9 8 1
10 0 1
10 1 1
10 2 3
10 3 3
10 4 7
10 5 3
10 6 3
10 7 5
10 8 4
10 9 6
11 0 6
11 1 5
11 2 9
11 3 6
11 4 7
11 5 3
11 6 8
11 7 6
11 8 1
11 9 9
11 10 2
12 0 6
12 1 1
12 2 8
12 3 10
12 4 10
12 5 6
12 6 9
12 7 3
12 8 9
12 9 2
12 10 5
12 11 1
13 0 8
13 1 7
13 2 2
13 3 4
13 4 9
13 5 2
13 6 6
13 7 9
13 8 3
13 9 9
13 10 5
13 11 6
13 12 6
14 0 7
14 1 4
14 2 7
14 3 5
14 4 6
14 5 2
14 6 6
14 7 2
14 8 3
14 9 8
14 10 2
14 11 6
14 12 1
14 13 3
15 0 3
15 1 1
15 2 1
15 3 2
15 4 9
15 5 7
15 6 8
15 7 9
15 8 9
15 9 8
15 10 9
15 11 2
15 12 5
15 13 8
15 14 1
16 0 5
16 1 4
16 2 6
16 3 3
16 4 7
16 5 4
16 6 6
16 7 7
16 8 10
16 9 7
16 10 5
16 11 6
16 12 10
16 13 1
16 14 5
16 15 2
17 0 8
17 1 2
17 2 4
17 3 9
17 4 7
17 5 5
17 6 3
17 7 7
17 8 5
17 9 5
17 10 8
17 11 6
17 12 3
17 13 10
17 14 6
17 15 10
17 16 10
18 0 4
18 1 8
18 2 6
18 3 5
18 4 3
18 5 10
18 6 9
18 7 10
18 8 9
18 9 3
18 10 1
18 11 1
18 12 2
18 13 2
18 14 10
18 15 7
18 16 9
18 17 9
19 0 9
19 1 6
19 2 9
19 3 8
19 4 8
19 5 4
19 6 3
19 7 9
19 8 3
19 9 1
19 10 5
19 11 9
19 12 7
19 13 6
19 14 5
19 15 10
19 16 8
19 17 5
19 18 8
20 0 3
20 1 8
20 2 1
20 3 8
20 4 5
20 5 10
20 6 2
20 7 3
20 8 9
20 9 7
20 10 2
20 11 9
20 12 1
20 13 2
20 14 7
20 15 9
20 16 3
20 17 1
20 18 8
20 19 6
21 0 3
21 1 8
21 2 7
21 3 6
21 4 8
21 5 5
21 6 8
21 7 10
21 8 10
21 9 10
21 10 10
21 11 1
21 12 7
21 13 10
21 14 6
21 15 8
21 16 9
21 17 10
21 18 9
21 19 6
21 20 6
22 0 3
22 1 4
22 2 4
22 3 4
22 4 6
22 5 5
22 6 3
22 7 4
22 8 3
22 9 3
22 10 8
22 11 4
22 12 10
22 13 10
22 14 3
22 15 4
22 16 6
22 17 1
22 18 10
22 19 5
22 20 10
22 21 10
23 0 7
23 1 3
23 2 7
23 3 5
23 4 9
23 5 7
23 6 3
23 7 5
23 8 2
23 9 2
23 10 10
23 11 10
23 12 6
23 13 1
23 14 8
23 15 8
23 16 2
23 17 4
23 18 10
23 19 8
23 20 9
23 21 5
23 22 7
24 0 9
24 1 6
24 2 4
24 3 5
24 4 6
24 5 5
24 6 6
24 7 6
24 8 3
24 9 3
24 10 8
24 11 2
24 12 5
24 13 3
24 14 4
24 15 10
24 16 2
24 17 10
24 18 5
24 19 1
24 20 2
24 21 2
24 22 2
24 23 3
25 0 2
25 1 1
25 2 2
25 3 9
25 4 9
25 5 10
25 6 10
25 7 4
25 8 2
25 9 4
25 10 4
25 11 6
25 12 5
25 13 6
25 14 6
25 15 5
25 16 10
25 17 2
25 18 2
25 19 8
25 20 10
25 21 1
25 22 8
25 23 7
25 24 8
26 0 7
26 1 9
26 2 7
26 3 5
26 4 7
26 5 2
26 6 2
26 7 2
26 8 10
26 9 5
26 10 8
26 11 8
26 12 3
26 13 9
26 14 6
26 15 3
26 16 5
26 17 9
26 18 5
26 19 1
26 20 5
26 21 4
26 22 10
26 23 2
26 24 2
26 25 6
27 0 2
27 1 7
27 2 8
27 3 7
27 4 7
27 5 7
27 6 5
27 7 7
27 8 9
27 9 6
27 10 3
27 11 9
27 12 4
27 13 3
27 14 5
27 15 4
27 16 9
27 17 6
27 18 7
27 19 6
27 20 9
27 21 9
27 22 1
27 23 10
27 24 7
27 25 9
27 26 10
28 0 4
28 1 6
28 2 5
28 3 9
28 4 5
28 5 4
28 6 3
28 7 1
28 8 6
28 9 8
28 10 1
28 11 5
28 12 2
28 13 9
28 14 1
28 15 10
28 16 4
28 17 7
28 18 2
28 19 1
28 20 7
28 21 10
28 22 4
28 23 9
28 24 9
28 25 3
28 26 4
28 27 7
29 0 8
29 1 2
29 2 10
29 3 1
29 4 2
29 5 3
29 6 9
29 7 8
29 8 1
29 9 1
29 10 1
29 11 6
29 12 9
29 13 8
29 14 2
29 15 6
29 16 10
29 17 7
29 18 1
29 19 3
29 20 7
29 21 4
29 22 10
29 23 6
29 24 2
29 25 5
29 26 6
29 27 9
29 28 9
30 0 2
30 1 8
30 2 3
30 3 1
30 4 3
30 5 10
30 6 9
30 7 10
30 8 10
30 9 2
30 10 5
30 11 10
30 12 7
30 13 5
30 14 2
30 15 2
30 16 4
30 17 2
30 18 2
30 19 9
30 20 4
30 21 8
30 22 6
30 23 5
30 24 8
30 25 3
30 26 4
30 27 5
30 28 5
30 29 6
31 0 2
31 1 2
31 2 4
31 3 2
31 4 8
31 5 2
31 6 10
31 7 3
31 8 8
31 9 2
31 10 5
31 11 9
31 12 8
31 13 8
31 14 6
31 15 10
31 16 2
31 17 5
31 18 6
31 19 5
31 20 4
31 21 5
31 22 1
31 23 5
31 24 8
31 25 3
31 26 6
31 27 3
31 28 7
31 29 5
31 30 3
32 0 9
32 1 4
32 2 10
32 3 6
32 4 6
32 5 7
32 6 6
32 7 10
32 8 1
32 9 10
32 10 7
32 11 4
32 12 6
32 13 9
32 14 2
32 15 10
32 16 6
32 17 4
32 18 2
32 19 6
32 20 2
32 21 4
32 22 6
32 23 4
32 24 6
32 25 6
32 26 2
32 27 5
32 28 1
32 29 9
32 30 5
32 31 2
33 0 9
33 1 10
33 2 2
33 3 6
33 4 5
33 5 6
33 6 5
33 7 1
33 8 7
33 9 9
33 10 7
33 11 8
33 12 10
33 13 8
33 14 8
33 15 7
33 16 5
33 17 3
33 18 3
33 19 1
33 20 5
33 21 3
33 22 4
33 23 5
33 24 1
33 25 1
33 26 9
33 27 6
33 28 7
33 29 1
33 30 10
33 31 9
33 32 6
34 0 10
34 1 8
34 2 9
34 3 5
34 4 5
34 5 2
34 6 10
34 7 8
34 8 10
34 9 10
34 10 9
34 11 2
34 12 7
34 13 8
34 14 4
34 15 9
34 16 2
34 17 5
34 18 7
34 19 7
34 20 6
34 21 4
34 22 10
34 23 1
34 24 5
34 25 2
34 26 1
34 27 2
34 28 3
34 29 5
34 30 4
34 31 2
34 32 6
34 33 9
35 0 5
35 1 9
35 2 3
35 3 5
35 4 7
35 5 2
35 6 7
35 7 1
35 8 6
35 9 6
35 10 2
35 11 6
35 12 10
35 13 4
35 14 5
35 15 4
35 16 3
35 17 8
35 18 2
35 19 9
35 20 6
35 21 1
35 22 10
35 23 1
35 24 2
35 25 2
35 26 3
35 27 1
35 28 4
35 29 7
35 30 10
35 31 6
35 32 6
35 33 6
35 34 7
36 0 7
36 1 6
36 2 5
36 3 6
36 4 7
36 5 3
36 6 2
36 7 5
36 8 4
36 9 2
36 10 9
36 11 7
36 12 1
36 13 3
36 14 9
36 15 3
36 16 10
36 17 6
36 18 9
36 19 1
36 20 4
36 21 5
36 22 5
36 23 10
36 24 9
36 25 4
36 26 8
36 27 6
36 28 8
36 29 10
36 30 6
36 31 10
36 32 4
36 33 7
36 34 7
36 35 5
37 0 2
37 1 4
37 2 1
37 3 2
37 4 1
37 5 5
37 6 2
37 7 7
37 8 3
37 9 8
37 10 2
37 11 2
37 12 5
37 13 9
37 14 5
37 15 4
37 16 8
37 17 8
37 18 7
37 19 6
37 20 1
37 21 8
37 22 10
37 23 2
37 24 5
37 25 3
37 26 5
37 27 1
37 28 3
37 29 6
37 30 10
37 31 5
37 32 5
37 33 1
37 34 9
37 35 2
37 36 7
38 0 5
38 1 3
38 2 8
38 3 5
38 4 3
38 5 4
38 6 8
38 7 8
38 8 3
38 9 10
38 10 3
38 11 2
38 12 7
38 13 8
38 14 8
38 15 1
38 16 10
38 17 3
38 18 1
38 19 9
38 20 7
38 21 6
38 22 1
38 23 9
38 24 8
38 25 2
38 26 7
38 27 8
38 28 9
38 29 6
38 30 9
38 31 10
38 32 6
38 33 9
38 34 10
38 35 8
38 36 9
38 37 5
39 0 1
39 1 9
39 2 3
39 3 2
39 4 7
39 5 5
39 6 2
39 7 3
39 8 7
39 9 7
39 10 7
39 11 4
39 12 4
39 13 7
39 14 7
39 15 10
39 16 10
39 17 7
39 18 10
39 19 7
39 20 5
39 21 9
39 22 4
39 23 2
39 24 2
39 25 3
39 26 2
39 27 9
39 28 9
39 29 7
39 30 1
39 31 3
39 32 4
39 33 8
39 34 8
39 35 8
39 36 4
39 37 3
39 38 5
40 0 1
40 1 1
40 2 7
40 3 10
40 4 9
40 5 2
40 6 10
40 7 7
40 8 7
40 9 2
40 10 7
40 11 8
40 12 8
40 13 5
40 14 1
40 15 9
40 16 3
40 17 10
40 18 2
40 19 4
40 20 3
40 21 4
40 22 8
40 23 10
40 24 2
40 25 2
40 26 6
40 27 7
40 28 5
40 29 1
40 30 3
40 31 5
40 32 10
40 33 9
40 34 9
40 35 5
40 36 6
40 37 3
40 38 6
40 39 5
41 0 10
41 1 4
41 2 10
41 3 2
41 4 6
41 5 1
41 6 8
41 7 1
41 8 10
41 9 1
41 10 10
41 11 6
41 12 7
41 13 1
41 14 6
41 15 9
41 16 10
41 17 5
41 18 7
41 19 4
41 20 8
41 21 8
41 22 2
41 23 6
41 24 6
41 25 9
41 26 7
41 27 5
41 28 2
41 29 9
41 30 3
41 31 4
41 32 4
41 33 10
41 34 4
41 35 9
41 36 6
41 37 3
41 38 3
41 39 5
41 40 10
42 0 3
42 1 5
42 2 3
42 3 8
42 4 1
42 5 10
42 6 10
42 7 2
42 8 9
42 9 7
42 10 9
42 11 2
42 12 6
42 13 4
42 14 3
42 15 4
42 16 10
42 17 1
42 18 1
42 19 2
42 20 5
42 21 7
42 22 3
42 23 8
42 24 1
42 25 5
42 26 10
42 27 2
42 28 2
42 29 1
42 30 5
42 31 9
42 32 7
42 33 5
42 34 6
42 35 7
42 36 9
42 37 9
42 38 7
42 39 8
42 40 1
42 41 8
43 0 10
43 1 10
43 2 2
43 3 4
43 4 7
43 5 3
43 6 6
43 7 4
43 8 7
43 9 2
43 10 1
43 11 6
43 12 9
43 13 7
43 14 5
43 15 6
43 16 6
43 17 6
43 18 4
43 19 10
43 20 8
43 21 5
43 22 1
43 23 7
43 24 1
43 25 6
43 26 6
43 27 9
43 28 7
43 29 10
43 30 4
43 31 1
43 32 10
43 33 10
43 34 9
43 35 7
43 36 5
43 37 5
43 38 6
43 39 4
43 40 5
43 41 8
43 42 2
44 0 3
44 1 9
44 2 7
44 3 4
44 4 1
44 5 5
44 6 4
44 7 3
44 8 2
44 9 9
44 10 6
44 11 4
44 12 4
44 13 2
44 14 4
44 15 8
44 16 2
44 17 3
44 18 10
44 19 4
44 20 1
44 21 9
44 22 5
44 23 7
44 24 3
44 25 3
44 26 7
44 27 5
44 28 3
44 29 2
44 30 2
44 31 4
44 32 4
44 33 10
44 34 8
44 35 9
44 36 6
44 37 9
44 38 10
44 39 2
44 40 8
44 41 10
44 42 3
44 43 7
